1 0.00
2 1341.08
3 1464.30
4 1633.28
5 1795.61
6 1925.66
7 2048.76
8 2166.88
9 2186.89
10 2274.70
11 2274.70
12 2321.35
13 2321.35
14 2321.35
15 2447.75
16 2526.22
17 2571.41
18 2571.41
19 2612.40
20 2632.59
21 2632.59
22 2632.59
23 2632.59
24 2632.59
25 2632.59
26 2632.59
27 2632.59
28 2632.59
29 2632.59
30 2632.59
31 2638.24
32 2638.24
33 2638.24
34 2705.11
35 2705.11
36 2784.60
37 2784.60
38 2784.60
39 2784.60
40 2784.60
41 2784.60
42 2784.60
43 2784.60
44 2784.60
45 2784.60
46 2784.60
47 2784.60
48 2802.57
49 2802.57
50 2802.57
51 2802.57
52 2802.57
53 2802.57
54 2802.57
55 2802.57
56 2802.57
57 2802.57
58 2802.57
59 2802.57
60 2802.57
61 2802.57
62 2802.57
63 2802.57
64 2802.57
65 2802.57
66 2802.57
67 2802.57
68 2802.57
69 2802.57
70 2802.57
71 2802.57
72 2802.57
73 2802.57
74 2802.57
75 2802.57
76 2802.57
77 2802.57
78 2802.57
79 2802.57
80 2802.57
81 2802.57
82 2802.57
83 2830.16
84 2835.57
85 2835.57
86 2835.57
87 2835.57
88 2835.57
89 2835.57
90 2835.57
91 2835.57
92 2835.57
93 2835.57
94 2835.57
95 2868.37
96 2868.37
97 2868.37
98 2868.37
99 2868.37
100 2868.37
101 2868.37
102 2868.37
103 2868.37
104 2868.37
105 2868.37
106 2868.37
107 2868.37
108 2868.37
109 2868.37
110 2868.37
111 2868.37
112 2868.37
113 2877.27
114 2877.27
115 2877.27
116 2877.27
117 2877.27
118 2877.27
119 2877.27
120 2877.27
121 2877.27
122 2877.27
123 2877.27
124 2877.27
125 2877.27
126 2877.27
127 2877.27
128 2877.27
129 2877.27
130 2877.27
131 2877.27
132 2877.27
133 2877.27
134 2877.27
135 2877.27
136 2877.27
137 2877.27
138 2877.27
139 2877.27
140 2877.27
141 2877.27
142 2877.27
143 2877.27
144 2877.27
145 2877.27
146 2877.27
147 2877.27
148 2877.27
149 2877.27
150 2877.27
151 2877.27
152 2877.27
153 2877.27
154 2877.27
155 2877.27
156 2877.27
157 2877.27
158 2877.27
159 2877.27
160 2877.27
161 2877.27
162 2877.27
163 2877.27
164 2877.27
165 2877.27
166 2877.27
167 2877.27
168 2877.27
169 2877.27
170 2877.27
171 2877.27
172 2877.27
173 2877.27
174 2877.27
175 2877.27
176 2877.27
177 2877.27
178 2877.27
179 2877.27
180 2877.27
181 2877.27
182 2877.27
183 2877.27
184 2877.27
185 2877.27
186 2877.27
187 2877.27
188 2877.27
189 2877.27
190 2877.27
191 2877.27
192 2877.27
193 2877.27
194 2877.27
195 2877.27
196 2877.27
197 2877.27
198 2877.27
199 2877.27
200 2877.27
201 2877.27
202 2877.27
203 2877.27
204 2877.27
205 2877.27
206 2877.27
207 2877.27
208 2877.27
209 2877.27
210 2877.27
211 2877.27
212 2877.27
213 2877.27
214 2877.27
215 2877.27
216 2877.27
217 2877.27
218 2877.27
219 2877.27
220 2877.27
221 2877.27
222 2877.27
223 2877.27
224 2877.27
225 2877.27
226 2877.27
227 2877.27
228 2877.27
229 2877.27
230 2877.27
231 2877.27
232 2877.27
233 2877.27
234 2877.27
235 2877.27
236 2877.27
237 2877.27
238 2877.27
239 2877.27
240 2877.27
241 2877.27
242 2877.27
243 2877.27
244 2877.27
245 2877.27
246 2877.27
247 2877.27
248 2877.27
249 2877.27
250 2877.27
251 2877.27
252 2877.27
253 2877.27
254 2877.27
255 2877.27
256 2877.27
257 2877.27
258 2877.27
259 2877.27
260 2877.27
261 2877.27
262 2877.27
263 2877.27
264 2877.27
265 2877.27
266 2877.27
267 2877.27
268 2877.27
269 2877.27
270 2877.27
271 2877.27
272 2877.27
273 2877.27
274 2877.27
275 2877.27
276 2877.27
277 2877.27
278 2877.27
279 2877.27
280 2877.27
281 2877.27
282 2877.27
283 2877.27
284 2877.27
285 2877.27
286 2877.27
287 2877.27
288 2877.27
289 2877.27
290 2877.27
291 2877.27
292 2877.27
293 2877.27
294 2877.27
295 2877.27
296 2877.27
297 2877.27
298 2877.27
299 2877.27
300 2877.27
301 2877.27
302 2877.27
303 2877.27
304 2877.27
305 2877.27
306 2877.27
307 2877.27
308 2877.27
309 2877.27
310 2877.27
311 2877.27
312 2877.27
313 2877.27
314 2877.27
315 2877.27
316 2877.27
317 2877.27
318 2877.27
319 2877.27
320 2877.27
321 2877.27
322 2877.27
323 2877.27
324 2877.27
325 2877.27
326 2877.27
327 2877.27
328 2877.27
329 2877.27
330 2877.27
331 2877.27
332 2877.27
333 2877.27
334 2877.27
335 2877.27
336 2877.27
337 2877.27
338 2877.27
339 2877.27
340 2877.27
341 2877.27
342 2877.27
343 2877.27
344 2877.27
345 2877.27
346 2877.27
347 2877.27
348 2877.27
349 2877.27
350 2877.27
351 2877.27
352 2877.27
353 2877.27
354 2877.27
355 2877.27
356 2877.27
357 2877.27
358 2877.27
359 2877.27
360 2877.27
361 2877.27
362 2877.27
363 2877.27
364 2877.27
365 2877.27
366 2877.27
367 2877.27
368 2877.27
369 2877.27
370 2877.27
371 2877.27
372 2877.27
373 2877.27
374 2877.27
375 2877.27
376 2877.27
377 2877.27
378 2877.27
379 2877.27
380 2877.27
381 2877.27
382 2877.27
383 2877.27
384 2877.27
385 2877.27
386 2877.27
387 2877.27
388 2877.27
389 2877.27
390 2877.27
391 2877.27
392 2877.27
393 2877.27
394 2877.27
395 2877.27
396 2877.27
397 2877.27
398 2877.27
399 2877.27
400 2877.27
401 2877.27
402 2877.27
403 2877.27
404 2877.27
405 2877.27
406 2877.27
407 2877.27
408 2877.27
409 2877.27
410 2877.27
411 2877.27
412 2877.27
413 2877.27
414 2877.27
415 2877.27
416 2877.27
417 2877.27
418 2877.27
419 2877.27
420 2877.27
421 2877.27
422 2877.27
423 2877.27
424 2877.27
425 2877.27
426 2877.27
427 2877.27
428 2877.27
429 2877.27
430 2877.27
431 2877.27
432 2877.27
433 2877.27
434 2877.27
435 2877.27
436 2877.27
437 2877.27
438 2877.27
439 2877.27
440 2877.27
441 2877.27
442 2877.27
443 2877.27
444 2877.27
445 2877.27
446 2877.27
447 2877.27
448 2877.27
449 2877.27
450 2877.27
451 2877.27
452 2877.27
453 2877.27
454 2877.27
455 2877.27
456 2877.27
457 2877.27
458 2877.27
459 2877.27
460 2877.27
461 2877.27
462 2877.27
463 2877.27
464 2877.27
465 2877.27
466 2877.27
467 2877.27
468 2877.27
469 2877.27
470 2877.27
471 2877.27
472 2877.27
473 2877.27
474 2877.27
475 2877.27
476 2877.27
477 2877.27
478 2877.27
479 2877.27
480 2877.27
481 2877.27
482 2877.27
483 2877.27
484 2877.27
485 2877.27
486 2877.27
487 2877.27
488 2877.27
489 2877.27
490 2877.27
491 2877.27
492 2877.27
493 2877.27
494 2877.27
495 2877.27
496 2877.27
497 2877.27
498 2877.27
499 2877.27
500 2877.27
501 2877.27
502 2877.27
503 2877.27
504 2877.27
505 2877.27
506 2877.27
507 2877.27
508 2877.27
509 2877.27
510 2877.27
511 2877.27
512 2877.27
513 2877.27
514 2877.27
515 2877.27
516 2877.27
517 2877.27
518 2877.27
519 2877.27
520 2877.27
521 2877.27
522 2877.27
523 2877.27
524 2877.27
525 2877.27
526 2877.27
527 2877.27
528 2877.27
529 2877.27
530 2877.27
531 2877.27
532 2877.27
533 2877.27
534 2877.27
535 2877.27
536 2877.27
537 2877.27
538 2877.27
539 2877.27
540 2877.27
541 2877.27
542 2877.27
543 2877.27
544 2877.27
545 2877.27
546 2877.27
547 2877.27
548 2877.27
549 2877.27
550 2877.27
551 2877.27
552 2877.27
553 2877.27
554 2877.27
555 2877.27
556 2877.27
557 2877.27
558 2877.27
559 2877.27
560 2877.27
561 2877.27
562 2877.27
563 2877.27
564 2877.27
565 2877.27
566 2877.27
567 2877.27
568 2877.27
569 2877.27
570 2877.27
571 2877.27
572 2877.27
573 2877.27
574 2877.27
575 2877.27
576 2877.27
577 2877.27
578 2877.27
579 2877.27
580 2877.27
581 2877.27
582 2877.27
583 2877.27
584 2877.27
585 2877.27
586 2877.27
587 2877.27
588 2877.27
589 2877.27
590 2877.27
591 2877.27
592 2877.27
593 2877.27
594 2877.27
595 2877.27
596 2877.27
597 2877.27
598 2877.27
599 2877.27
600 2877.27
601 2877.27
602 2877.27
603 2877.27
604 2877.27
605 2877.27
606 2877.27
607 2877.27
608 2877.27
609 2877.27
610 2877.27
611 2877.27
612 2877.27
613 2877.27
614 2877.27
615 2877.27
616 2877.27
617 2877.27
618 2877.27
619 2877.27
620 2877.27
621 2877.27
622 2877.27
623 2877.27
624 2877.27
625 2877.27
626 2877.27
627 2877.27
628 2877.27
629 2877.27
630 2877.27
631 2877.27
632 2877.27
633 2877.27
634 2877.27
635 2877.27
636 2877.27
637 2877.27
638 2877.27
639 2877.27
640 2877.27
641 2877.27
642 2877.27
643 2877.27
644 2877.27
645 2877.27
646 2877.27
647 2877.27
648 2877.27
649 2877.27
650 2877.27
651 2877.27
652 2877.27
653 2877.27
654 2877.27
655 2877.27
656 2877.27
657 2877.27
658 2877.27
659 2877.27
660 2877.27
661 2877.27
662 2877.27
663 2877.27
664 2877.27
665 2877.27
666 2877.27
667 2877.27
668 2877.27
669 2877.27
670 2877.27
671 2877.27
672 2877.27
673 2877.27
674 2877.27
675 2877.27
676 2877.27
677 2877.27
678 2877.27
679 2877.27
680 2877.27
681 2877.27
682 2877.27
683 2877.27
684 2877.27
685 2877.27
686 2877.27
687 2877.27
688 2877.27
689 2877.27
690 2877.27
691 2877.27
692 2877.27
693 2877.27
694 2877.27
695 2877.27
696 2877.27
697 2877.27
698 2877.27
699 2877.27
700 2877.27
701 2877.27
702 2877.27
703 2877.27
704 2877.27
705 2877.27
706 2877.27
707 2877.27
708 2877.27
709 2877.27
710 2877.27
711 2877.27
712 2877.27
713 2877.27
714 2877.27
715 2877.27
716 2877.27
717 2877.27
718 2877.27
719 2877.27
720 2877.27
721 2877.27
722 2877.27
723 2877.27
724 2877.27
725 2877.27
726 2877.27
727 2877.27
728 2877.27
729 2877.27
730 2877.27
731 2877.27
732 2877.27
733 2877.27
734 2877.27
735 2877.27
736 2877.27
737 2877.27
738 2877.27
739 2877.27
740 2877.27
741 2877.27
742 2877.27
743 2877.27
744 2877.27
745 2877.27
746 2877.27
747 2877.27
748 2877.27
749 2877.27
750 2877.27
751 2877.27
752 2877.27
753 2877.27
754 2877.27
755 2877.27
756 2877.27
757 2877.27
758 2877.27
759 2877.27
760 2877.27
761 2877.27
762 2877.27
763 2877.27
764 2877.27
765 2877.27
766 2877.27
767 2877.27
768 2877.27
769 2877.27
770 2877.27
771 2877.27
772 2877.27
773 2877.27
774 2877.27
775 2877.27
776 2877.27
777 2877.27
778 2877.27
779 2877.27
780 2877.27
781 2877.27
782 2877.27
783 2877.27
784 2877.27
785 2877.27
786 2877.27
787 2877.27
788 2877.27
789 2877.27
790 2877.27
791 2877.27
792 2877.27
793 2877.27
794 2877.27
795 2877.27
796 2877.27
797 2877.27
798 2877.27
799 2877.27
800 2877.27
801 2877.27
802 2877.27
803 2877.27
804 2877.27
805 2877.27
806 2877.27
807 2877.27
808 2877.27
809 2877.27
810 2877.27
811 2877.27
812 2877.27
813 2877.27
814 2877.27
815 2877.27
816 2877.27
817 2877.27
818 2877.27
819 2877.27
820 2877.27
821 2877.27
822 2877.27
823 2877.27
824 2877.27
825 2877.27
826 2877.27
827 2877.27
828 2877.27
829 2877.27
830 2877.27
831 2877.27
832 2877.27
833 2877.27
834 2877.27
835 2877.27
836 2877.27
837 2877.27
838 2877.27
839 2877.27
840 2877.27
841 2877.27
842 2877.27
843 2877.27
844 2877.27
845 2877.27
846 2877.27
847 2877.27
848 2877.27
849 2877.27
850 2877.27
851 2877.27
852 2877.27
853 2877.27
854 2877.27
855 2877.27
856 2877.27
857 2877.27
858 2877.27
859 2877.27
860 2877.27
861 2877.27
862 2877.27
863 2877.27
864 2877.27
865 2877.27
866 2877.27
867 2877.27
868 2877.27
869 2877.27
870 2877.27
871 2877.27
872 2877.27
873 2877.27
874 2877.27
875 2877.27
876 2877.27
877 2877.27
878 2877.27
879 2877.27
880 2877.27
881 2877.27
882 2877.27
883 2877.27
884 2877.27
885 2877.27
886 2877.27
887 2877.27
888 2877.27
889 2877.27
890 2877.27
891 2877.27
892 2877.27
893 2877.27
894 2877.27
895 2877.27
896 2877.27
897 2877.27
898 2877.27
899 2877.27
900 2877.27
901 2877.27
902 2877.27
903 2877.27
904 2877.27
905 2877.27
906 2877.27
907 2877.27
908 2877.27
909 2877.27
910 2877.27
911 2877.27
912 2877.27
913 2877.27
914 2877.27
915 2877.27
916 2877.27
917 2877.27
918 2877.27
919 2877.27
920 2877.27
921 2877.27
922 2877.27
923 2877.27
924 2877.27
925 2877.27
926 2877.27
927 2877.27
928 2877.27
929 2877.27
930 2877.27
931 2877.27
932 2877.27
933 2877.27
934 2877.27
935 2877.27
936 2877.27
937 2877.27
938 2877.27
939 2877.27
940 2877.27
941 2877.27
942 2877.27
943 2877.27
944 2877.27
945 2877.27
946 2877.27
947 2877.27
948 2877.27
949 2877.27
950 2877.27
951 2877.27
952 2877.27
953 2877.27
954 2877.27
955 2877.27
956 2877.27
957 2877.27
958 2877.27
959 2877.27
960 2877.27
961 2877.27
962 2877.27
963 2877.27
964 2877.27
965 2877.27
966 2877.27
967 2877.27
968 2877.27
969 2877.27
970 2877.27
971 2877.27
972 2877.27
973 2877.27
974 2877.27
975 2877.27
976 2877.27
977 2877.27
978 2877.27
979 2877.27
980 2877.27
981 2877.27
982 2877.27
983 2877.27
984 2877.27
985 2877.27
986 2877.27
987 2877.27
988 2877.27
989 2877.27
990 2877.27
991 2877.27
992 2877.27
993 2877.27
994 2877.27
995 2877.27
996 2877.27
997 2877.27
998 2877.27
999 2877.27
1000 2877.27
1001 2877.27
